experiment/data/lkh-res/Vrp-Set-A-n65/Vrp-Set-A-n65-lkh/0.lkh1.vrp
NAME : 0
COMMENT : CVRP Instance
TYPE : CVRP
DIMENSION : 65
EDGE_WEIGHT_TYPE : EUC_2D
CAPACITY : 100
NODE_COORD_SECTION
1	2500	5100
2	3500	700
3	9300	7500
4	5300	9500
5	5100	8100
6	5100	5500
7	100	6700
8	900	2300
9	7500	700
10	1500	9700
11	7900	500
12	900	1900
13	3900	100
14	4700	100
15	3300	9700
16	2700	8300
17	8300	7900
18	1700	5900
19	4700	1900
20	5700	900
21	8700	4100
22	5500	2500
23	2100	9100
24	2100	1300
25	6700	100
26	5900	2100
27	100	7500
28	3300	8500
29	2500	2100
30	4500	2900
31	6300	7700
32	100	7700
33	7700	4100
34	3500	1100
35	900	7700
36	6100	8700
37	5900	9100
38	6300	7900
39	9700	6700
40	900	4500
41	9300	2100
42	8300	7100
43	9500	5700
44	3100	6900
45	7700	1700
46	6300	5700
47	300	6300
48	1100	6900
49	700	900
50	3700	6500
51	7500	8300
52	1500	5300
53	6900	500
54	6900	2700
55	500	1900
56	4900	3100
57	7700	1700
58	1500	700
59	9100	3900
60	7900	1700
61	6700	7500
62	9300	5100
63	2500	3300
64	900	1900
65	300	6500
DEMAND_SECTION
1	0
2	12
3	24
4	16
5	7
6	9
7	20
8	10
9	18
10	26
11	17
12	2
13	11
14	9
15	12
16	11
17	12
18	23
19	7
20	1
21	26
22	10
23	9
24	22
25	21
26	17
27	2
28	15
29	16
30	14
31	23
32	24
33	2
34	12
35	18
36	5
37	19
38	15
39	8
40	6
41	14
42	13
43	5
44	24
45	25
46	2
47	8
48	14
49	2
50	13
51	10
52	6
53	6
54	24
55	21
56	20
57	24
58	4
59	19
60	14
61	23
62	2
63	16
64	23
65	14
DEPOT_SECTION
1
-1
EOF
