experiment/data/lkh-res/Vrp-Set-A-n65/Vrp-Set-A-n65-lkh/0.lkh1.log
PARAMETER_FILE = baseline_results/cvrp_lkh/Vrp-Set-A-n65/Vrp-Set-A-n65-lkh/0.lkh1.par
Reading PROBLEM_FILE: "baseline_results/cvrp_lkh/Vrp-Set-A-n65/Vrp-Set-A-n65-lkh/0.lkh1.vrp" ... done
ASCENT_CANDIDATES = 50
BACKBONE_TRIALS = 0
BACKTRACKING = NO
# BWTSP =
# CANDIDATE_FILE =
CANDIDATE_SET_TYPE = ALPHA
# DISTANCE =
DEPOT = 1
# EDGE_FILE =
EXCESS = 0.0153846
EXTERNAL_SALESMEN = 0
EXTRA_CANDIDATES = 0 
EXTRA_CANDIDATE_SET_TYPE = QUADRANT
GAIN23 = NO
GAIN_CRITERION = YES
INITIAL_PERIOD = 100
INITIAL_STEP_SIZE = 1
INITIAL_TOUR_ALGORITHM = WALK
# INITIAL_TOUR_FILE = 
INITIAL_TOUR_FRACTION = 1.000
# INPUT_TOUR_FILE = 
KICK_TYPE = 4
KICKS = 1
# MAX_BREADTH =
MAKESPAN = NO
MAX_CANDIDATES = 5 
MAX_SWAPS = 0
MAX_TRIALS = 10000
# MERGE_TOUR_FILE =
MOVE_TYPE = 5 SPECIAL
MTSP_MIN_SIZE = 1
MTSP_MAX_SIZE = 64
# MTSP_SOLUTION_FILE = 
# NONSEQUENTIAL_MOVE_TYPE = 5
# OPTIMUM =
OUTPUT_TOUR_FILE = baseline_results/cvrp_lkh/Vrp-Set-A-n65/Vrp-Set-A-n65-lkh/0.lkh1.tour
PATCHING_A = 1 
PATCHING_C = 0 
# PI_FILE = 
POPMUSIC_INITIAL_TOUR = NO
POPMUSIC_MAX_NEIGHBORS = 5
POPMUSIC_SAMPLE_SIZE = 10
POPMUSIC_SOLUTIONS = 50
POPMUSIC_TRIALS = 1
POPULATION_SIZE = 10
PRECISION = 100
PROBLEM_FILE = baseline_results/cvrp_lkh/Vrp-Set-A-n65/Vrp-Set-A-n65-lkh/0.lkh1.vrp
RECOMBINATION = IPT
RESTRICTED_SEARCH = YES
RUNS = 1
SALESMEN = 9
SCALE = 1
SEED = 1234
# SINTEF_SOLUTION_FILE = 
STOP_AT_OPTIMUM = YES
SUBGRADIENT = YES
# SUBPROBLEM_SIZE =
# SUBPROBLEM_TOUR_FILE = 
SUBSEQUENT_MOVE_TYPE = 5 SPECIAL
SUBSEQUENT_PATCHING = YES
# TIME_LIMIT =
# TOTAL_TIME_LIMIT =
# TOUR_FILE = 
TRACE_LEVEL = 1
VEHICLES = 9

Lower bound = 82568.5, Ascent time = 0.01 sec.
Cand.min = 5, Cand.avg = 5.0, Cand.max = 5
Preprocessing time = 0.01 sec.
* 1: Cost = 0_127174, Time = 0.01 sec. 
Writing OUTPUT_TOUR_FILE: "baseline_results/cvrp_lkh/Vrp-Set-A-n65/Vrp-Set-A-n65-lkh/0.lkh1.tour" ... done
* 6: Cost = 0_124929, Time = 0.03 sec. 
Writing OUTPUT_TOUR_FILE: "baseline_results/cvrp_lkh/Vrp-Set-A-n65/Vrp-Set-A-n65-lkh/0.lkh1.tour" ... done
* 7: Cost = 0_122507, Time = 0.04 sec. 
Writing OUTPUT_TOUR_FILE: "baseline_results/cvrp_lkh/Vrp-Set-A-n65/Vrp-Set-A-n65-lkh/0.lkh1.tour" ... done
* 12: Cost = 0_122233, Time = 0.07 sec. 
Writing OUTPUT_TOUR_FILE: "baseline_results/cvrp_lkh/Vrp-Set-A-n65/Vrp-Set-A-n65-lkh/0.lkh1.tour" ... done
* 22: Cost = 0_122060, Time = 0.11 sec. 
Writing OUTPUT_TOUR_FILE: "baseline_results/cvrp_lkh/Vrp-Set-A-n65/Vrp-Set-A-n65-lkh/0.lkh1.tour" ... done
* 41: Cost = 0_121923, Time = 0.21 sec. 
Writing OUTPUT_TOUR_FILE: "baseline_results/cvrp_lkh/Vrp-Set-A-n65/Vrp-Set-A-n65-lkh/0.lkh1.tour" ... done
* 50: Cost = 0_121599, Time = 0.25 sec. 
Writing OUTPUT_TOUR_FILE: "baseline_results/cvrp_lkh/Vrp-Set-A-n65/Vrp-Set-A-n65-lkh/0.lkh1.tour" ... done
* 52: Cost = 0_121399, Time = 0.26 sec. 
Writing OUTPUT_TOUR_FILE: "baseline_results/cvrp_lkh/Vrp-Set-A-n65/Vrp-Set-A-n65-lkh/0.lkh1.tour" ... done
* 66: Cost = 0_121182, Time = 0.29 sec. 
Writing OUTPUT_TOUR_FILE: "baseline_results/cvrp_lkh/Vrp-Set-A-n65/Vrp-Set-A-n65-lkh/0.lkh1.tour" ... done
* 83: Cost = 0_120459, Time = 0.35 sec. 
Writing OUTPUT_TOUR_FILE: "baseline_results/cvrp_lkh/Vrp-Set-A-n65/Vrp-Set-A-n65-lkh/0.lkh1.tour" ... done
* 88: Cost = 0_120286, Time = 0.40 sec. 
Writing OUTPUT_TOUR_FILE: "baseline_results/cvrp_lkh/Vrp-Set-A-n65/Vrp-Set-A-n65-lkh/0.lkh1.tour" ... done
* 95: Cost = 0_120077, Time = 0.43 sec. 
Writing OUTPUT_TOUR_FILE: "baseline_results/cvrp_lkh/Vrp-Set-A-n65/Vrp-Set-A-n65-lkh/0.lkh1.tour" ... done
* 96: Cost = 0_119877, Time = 0.43 sec. 
Writing OUTPUT_TOUR_FILE: "baseline_results/cvrp_lkh/Vrp-Set-A-n65/Vrp-Set-A-n65-lkh/0.lkh1.tour" ... done
* 123: Cost = 0_119358, Time = 0.59 sec. 
Writing OUTPUT_TOUR_FILE: "baseline_results/cvrp_lkh/Vrp-Set-A-n65/Vrp-Set-A-n65-lkh/0.lkh1.tour" ... done
* 141: Cost = 0_119291, Time = 0.68 sec. 
Writing OUTPUT_TOUR_FILE: "baseline_results/cvrp_lkh/Vrp-Set-A-n65/Vrp-Set-A-n65-lkh/0.lkh1.tour" ... done
* 292: Cost = 0_119077, Time = 1.35 sec. 
Writing OUTPUT_TOUR_FILE: "baseline_results/cvrp_lkh/Vrp-Set-A-n65/Vrp-Set-A-n65-lkh/0.lkh1.tour" ... done
* 846: Cost = 0_118524, Time = 4.14 sec. 
Writing OUTPUT_TOUR_FILE: "baseline_results/cvrp_lkh/Vrp-Set-A-n65/Vrp-Set-A-n65-lkh/0.lkh1.tour" ... done
* 969: Cost = 0_118464, Time = 5.09 sec. 
Writing OUTPUT_TOUR_FILE: "baseline_results/cvrp_lkh/Vrp-Set-A-n65/Vrp-Set-A-n65-lkh/0.lkh1.tour" ... done
Population:
  1: 0_118464
Run 1: Cost = 0_118464, Time = 36.09 sec. 

Successes/Runs = 0/1 
Cost.min = 118464, Cost.avg = 118464.00, Cost.max = 118464
Gap.min = 0.0000%, Gap.avg = 0.0000%, Gap.max = 0.0000%
Penalty.min = 0, Penalty.avg = 0.00, Penalty.max = 0
Trials.min = 10000, Trials.avg = 10000.0, Trials.max = 10000
Time.min = 36.09 sec., Time.avg = 36.09 sec., Time.max = 36.09 sec.
Time.total = 36.10 sec.
  Size.min = 5, Size.max = 8, Penalty = 0
  Cost.min = 8961, Cost.max = 18067, Cost.sum = 118464
Best CVRP solution:
  Cost = 0_118464

