experiment/data/lkh-res/Vrp-Set-A-n65/Vrp-Set-A-n65-lkh/0.lkh1.tour
NAME : 0.118464.tour
COMMENT : Length = 118464
COMMENT : Found by LKH-3 [Keld Helsgaun] Tue Apr  9 00:50:42 2024
TYPE : TOUR
DIMENSION : 73
TOUR_SECTION
1
8
12
64
55
49
58
24
29
68
60
41
11
9
53
25
20
19
67
63
34
2
13
14
30
56
69
50
5
36
37
4
15
28
16
72
6
46
17
51
61
31
38
70
44
23
10
35
18
66
54
45
57
26
22
73
33
21
59
62
43
39
3
42
71
48
32
27
7
65
47
40
52
-1
EOF
